50
13629

865 876
395 375
777 833
912 975
431 383
42 142
266 288
989 1002
524 557
498 464
415 330
941 981
803 706
850 773
311 395
992 994
489 570
367 467
598 669
914 974
930 830
224 280
517 543
143 128
289 251
144 230
774 757
98 181
634 550
819 767
257 302
932 888
546 507
723 659
830 869
617 631
924 847
151 71
318 299
102 132
748 773
76 28
921 898
871 912
701 675
339 419
484 415
574 614
104 89
363 401
